2025 02 25 18 42 51-2025 02 26 06 28 30
2025 02 26 18 43 34-2025 02 27 06 27 27
2025 02 27 18 44 16-2025 02 28 06 26 23
2025 02 28 18 44 58-2025 03 01 06 25 18
2025 03 01 18 45 40-2025 03 02 06 24 13
2025 03 02 18 46 21-2025 03 03 06 23 07
2025 03 03 18 47 03-2025 03 04 06 22 00
2025 03 04 18 47 44-2025 03 05 06 20 52
2025 03 05 18 48 25-2025 03 06 06 19 44
2025 03 06 18 49 05-2025 03 07 06 18 35
2025 03 07 18 49 46-2025 03 08 06 17 26
2025 03 08 18 50 26-2025 03 09 06 16 16
2025 03 09 18 51 06-2025 03 10 06 15 06
2025 03 10 18 51 46-2025 03 11 06 13 55
2025 03 11 18 52 25-2025 03 12 06 12 43
2025 03 12 18 53 05-2025 03 13 06 11 32
2025 03 13 18 53 44-2025 03 14 06 10 19
2025 03 14 18 54 24-2025 03 15 06 09 07
2025 03 15 18 55 03-2025 03 16 06 07 54
2025 03 16 18 55 42-2025 03 17 06 06 41
2025 03 17 18 56 21-2025 03 18 06 05 27
2025 03 18 18 57 00-2025 03 19 06 04 13
2025 03 19 18 57 39-2025 03 20 06 02 59
2025 03 20 18 58 17-2025 03 21 06 01 45
2025 03 21 18 58 56-2025 03 22 06 00 30
2025 03 22 18 59 35-2025 03 23 05 59 16
2025 03 23 19 00 14-2025 03 24 05 58 01
2025 03 24 19 00 52-2025 03 25 05 56 46
2025 03 25 19 01 31-2025 03 26 05 55 32
2025 03 26 19 02 10-2025 03 27 05 54 17
2025 03 27 19 02 48-2025 03 28 05 53 02
2025 03 28 19 03 27-2025 03 29 05 51 47
2025 03 29 19 04 06-2025 03 30 05 50 32
2025 03 30 19 04 45-2025 03 31 05 49 17
2025 03 31 19 05 24-2025 04 01 05 48 03
2025 04 01 19 06 03-2025 04 02 05 46 48
2025 04 02 19 06 42-2025 04 03 05 45 34
2025 04 03 19 07 22-2025 04 04 05 44 20
2025 04 04 19 08 01-2025 04 05 05 43 06
2025 04 05 19 08 41-2025 04 06 05 41 52
2025 04 06 19 09 20-2025 04 07 05 40 39
2025 04 07 19 10 00-2025 04 08 05 39 26
2025 04 08 19 10 40-2025 04 09 05 38 13
2025 04 09 19 11 20-2025 04 10 05 37 00
2025 04 10 19 12 00-2025 04 11 05 35 48
2025 04 11 19 12 41-2025 04 12 05 34 37
2025 04 12 19 13 21-2025 04 13 05 33 25
2025 04 13 19 14 02-2025 04 14 05 32 15
2025 04 14 19 14 43-2025 04 15 05 31 05
2025 04 15 19 15 24-2025 04 16 05 29 55
2025 04 16 19 16 05-2025 04 17 05 28 46
2025 04 17 19 16 46-2025 04 18 05 27 37
2025 04 18 19 17 28-2025 04 19 05 26 29
2025 04 19 19 18 10-2025 04 20 05 25 22
2025 04 20 19 18 52-2025 04 21 05 24 15
2025 04 21 19 19 34-2025 04 22 05 23 09
2025 04 22 19 20 16-2025 04 23 05 22 04
2025 04 23 19 20 58-2025 04 24 05 21 00
2025 04 24 19 21 41-2025 04 25 05 19 56
2025 04 25 19 22 24-2025 04 26 05 18 53
2025 04 26 19 23 06-2025 04 27 05 17 51
2025 04 27 19 23 49-2025 04 28 05 16 50
2025 04 28 19 24 33-2025 04 29 05 15 50
2025 04 29 19 25 16-2025 04 30 05 14 51
2025 04 30 19 25 59-2025 05 01 05 13 52
2025 05 01 19 26 43-2025 05 02 05 12 55
2025 05 02 19 27 26-2025 05 03 05 11 59
